37 
1
37 
1 1 1 1 1 1 1 1 1 1 1 1 1 1 1 1 1 1 1 1 1 1 1 1 1 1 1 1 1 1 1 1 1 1 1 1 1 
1 1 1 1 1
2 1 2 2 1
3 1 3 3 1
4 1 4 4 1
5 1 5 5 1
6 1 6 6 1
7 1 7 7 1
8 1 8 8 1
9 1 9 9 1
10 1 10 10 1
11 1 11 11 1
12 1 12 12 1
13 1 13 13 1
14 1 14 14 1
15 1 15 15 1
16 1 16 16 1
17 1 17 17 1
18 1 18 18 1
19 1 19 19 1
20 1 20 20 1
21 1 21 21 1
22 1 22 22 1
23 1 23 23 1
24 1 24 24 1
25 1 25 25 1
26 1 26 26 1
27 1 27 27 1
28 1 28 28 1
29 1 29 29 1
30 1 30 30 1
31 1 31 31 1
32 1 32 32 1
33 1 33 33 1
34 1 34 34 1
35 1 35 35 1
36 1 36 36 1
37 1 37 37 1
0 1 1 2 0.866667
0 1 1 3 0.866667
0 1 1 4 1.000000
0 1 1 5 0.866667
0 1 1 6 0.600000
0 1 1 7 0.600000
0 1 1 8 0.466667
0 1 1 9 0.600000
0 1 1 10 0.466667
0 1 1 11 0.333333
0 1 1 12 0.333333
0 1 1 13 0.466667
0 1 1 14 0.066667
0 1 1 15 0.066667
0 1 1 16 0.066667
0 1 1 17 0.200000
0 1 1 18 0.200000
0 1 1 19 0.200000
0 1 1 20 -0.200000
0 1 1 21 -0.200000
0 1 1 22 -0.200000
0 1 1 23 -0.066667
0 1 1 24 -0.066667
0 1 1 25 -0.066667
0 1 1 26 -0.600000
0 1 1 27 -0.466667
0 1 1 28 -0.466667
0 1 1 29 -0.466667
0 1 1 30 -0.466667
0 1 1 31 -0.333333
0 1 1 32 -1.000000
0 1 1 33 -0.866667
0 1 1 34 -0.866667
0 1 1 35 -0.733333
0 1 1 36 -0.733333
0 1 1 37 -0.733333
0 1 2 2 0.020000
0 1 2 3 0.020000
0 1 2 4 0.020000
0 1 2 8 0.020000
0 1 2 9 0.020000
0 1 2 10 0.020000
0 1 2 14 0.020000
0 1 2 15 0.020000
0 1 2 16 0.020000
0 1 3 3 0.020000
0 1 3 4 0.020000
0 1 3 5 0.020000
0 1 3 8 0.020000
0 1 3 9 0.020000
0 1 3 10 0.020000
0 1 3 11 0.020000
0 1 3 14 0.020000
0 1 3 15 0.020000
0 1 3 16 0.020000
0 1 3 17 0.020000
0 1 4 4 0.020000
0 1 4 5 0.020000
0 1 4 6 0.020000
0 1 4 8 0.020000
0 1 4 9 0.020000
0 1 4 10 0.020000
0 1 4 11 0.020000
0 1 4 12 0.020000
0 1 4 14 0.020000
0 1 4 15 0.020000
0 1 4 16 0.020000
0 1 4 17 0.020000
0 1 4 18 0.020000
0 1 5 5 0.020000
0 1 5 6 0.020000
0 1 5 7 0.020000
0 1 5 9 0.020000
0 1 5 10 0.020000
0 1 5 11 0.020000
0 1 5 12 0.020000
0 1 5 13 0.020000
0 1 5 15 0.020000
0 1 5 16 0.020000
0 1 5 17 0.020000
0 1 5 18 0.020000
0 1 5 19 0.020000
0 1 6 6 0.020000
0 1 6 7 0.020000
0 1 6 10 0.020000
0 1 6 11 0.020000
0 1 6 12 0.020000
0 1 6 13 0.020000
0 1 6 16 0.020000
0 1 6 17 0.020000
0 1 6 18 0.020000
0 1 6 19 0.020000
0 1 7 7 0.020000
0 1 7 11 0.020000
0 1 7 12 0.020000
0 1 7 13 0.020000
0 1 7 17 0.020000
0 1 7 18 0.020000
0 1 7 19 0.020000
0 1 8 8 0.020000
0 1 8 9 0.020000
0 1 8 10 0.020000
0 1 8 14 0.020000
0 1 8 15 0.020000
0 1 8 16 0.020000
0 1 8 20 0.020000
0 1 8 21 0.020000
0 1 8 22 0.020000
0 1 9 9 0.020000
0 1 9 10 0.020000
0 1 9 11 0.020000
0 1 9 14 0.020000
0 1 9 15 0.020000
0 1 9 16 0.020000
0 1 9 17 0.020000
0 1 9 20 0.020000
0 1 9 21 0.020000
0 1 9 22 0.020000
0 1 9 23 0.020000
0 1 10 10 0.020000
0 1 10 11 0.020000
0 1 10 12 0.020000
0 1 10 14 0.020000
0 1 10 15 0.020000
0 1 10 16 0.020000
0 1 10 17 0.020000
0 1 10 18 0.020000
0 1 10 20 0.020000
0 1 10 21 0.020000
0 1 10 22 0.020000
0 1 10 23 0.020000
0 1 10 24 0.020000
0 1 11 11 0.020000
0 1 11 12 0.020000
0 1 11 13 0.020000
0 1 11 15 0.020000
0 1 11 16 0.020000
0 1 11 17 0.020000
0 1 11 18 0.020000
0 1 11 19 0.020000
0 1 11 21 0.020000
0 1 11 22 0.020000
0 1 11 23 0.020000
0 1 11 24 0.020000
0 1 11 25 0.020000
0 1 12 12 0.020000
0 1 12 13 0.020000
0 1 12 16 0.020000
0 1 12 17 0.020000
0 1 12 18 0.020000
0 1 12 19 0.020000
0 1 12 22 0.020000
0 1 12 23 0.020000
0 1 12 24 0.020000
0 1 12 25 0.020000
0 1 13 13 0.020000
0 1 13 17 0.020000
0 1 13 18 0.020000
0 1 13 19 0.020000
0 1 13 23 0.020000
0 1 13 24 0.020000
0 1 13 25 0.020000
0 1 14 14 0.020000
0 1 14 15 0.020000
0 1 14 16 0.020000
0 1 14 20 0.020000
0 1 14 21 0.020000
0 1 14 22 0.020000
0 1 14 26 0.020000
0 1 14 27 0.020000
0 1 14 28 0.020000
0 1 15 15 0.020000
0 1 15 16 0.020000
0 1 15 17 0.020000
0 1 15 20 0.020000
0 1 15 21 0.020000
0 1 15 22 0.020000
0 1 15 23 0.020000
0 1 15 26 0.020000
0 1 15 27 0.020000
0 1 15 28 0.020000
0 1 15 29 0.020000
0 1 16 16 0.020000
0 1 16 17 0.020000
0 1 16 18 0.020000
0 1 16 20 0.020000
0 1 16 21 0.020000
0 1 16 22 0.020000
0 1 16 23 0.020000
0 1 16 24 0.020000
0 1 16 26 0.020000
0 1 16 27 0.020000
0 1 16 28 0.020000
0 1 16 29 0.020000
0 1 16 30 0.020000
0 1 17 17 0.020000
0 1 17 18 0.020000
0 1 17 19 0.020000
0 1 17 21 0.020000
0 1 17 22 0.020000
0 1 17 23 0.020000
0 1 17 24 0.020000
0 1 17 25 0.020000
0 1 17 27 0.020000
0 1 17 28 0.020000
0 1 17 29 0.020000
0 1 17 30 0.020000
0 1 17 31 0.020000
0 1 18 18 0.020000
0 1 18 19 0.020000
0 1 18 22 0.020000
0 1 18 23 0.020000
0 1 18 24 0.020000
0 1 18 25 0.020000
0 1 18 28 0.020000
0 1 18 29 0.020000
0 1 18 30 0.020000
0 1 18 31 0.020000
0 1 19 19 0.020000
0 1 19 23 0.020000
0 1 19 24 0.020000
0 1 19 25 0.020000
0 1 19 29 0.020000
0 1 19 30 0.020000
0 1 19 31 0.020000
0 1 20 20 0.020000
0 1 20 21 0.020000
0 1 20 22 0.020000
0 1 20 26 0.020000
0 1 20 27 0.020000
0 1 20 28 0.020000
0 1 20 32 0.020000
0 1 20 33 0.020000
0 1 20 34 0.020000
0 1 21 21 0.020000
0 1 21 22 0.020000
0 1 21 23 0.020000
0 1 21 26 0.020000
0 1 21 27 0.020000
0 1 21 28 0.020000
0 1 21 29 0.020000
0 1 21 32 0.020000
0 1 21 33 0.020000
0 1 21 34 0.020000
0 1 21 35 0.020000
0 1 22 22 0.020000
0 1 22 23 0.020000
0 1 22 24 0.020000
0 1 22 26 0.020000
0 1 22 27 0.020000
0 1 22 28 0.020000
0 1 22 29 0.020000
0 1 22 30 0.020000
0 1 22 32 0.020000
0 1 22 33 0.020000
0 1 22 34 0.020000
0 1 22 35 0.020000
0 1 22 36 0.020000
0 1 23 23 0.020000
0 1 23 24 0.020000
0 1 23 25 0.020000
0 1 23 27 0.020000
0 1 23 28 0.020000
0 1 23 29 0.020000
0 1 23 30 0.020000
0 1 23 31 0.020000
0 1 23 33 0.020000
0 1 23 34 0.020000
0 1 23 35 0.020000
0 1 23 36 0.020000
0 1 23 37 0.020000
0 1 24 24 0.020000
0 1 24 25 0.020000
0 1 24 28 0.020000
0 1 24 29 0.020000
0 1 24 30 0.020000
0 1 24 31 0.020000
0 1 24 34 0.020000
0 1 24 35 0.020000
0 1 24 36 0.020000
0 1 24 37 0.020000
0 1 25 25 0.020000
0 1 25 29 0.020000
0 1 25 30 0.020000
0 1 25 31 0.020000
0 1 25 35 0.020000
0 1 25 36 0.020000
0 1 25 37 0.020000
0 1 26 26 0.020000
0 1 26 27 0.020000
0 1 26 28 0.020000
0 1 26 32 0.020000
0 1 26 33 0.020000
0 1 26 34 0.020000
0 1 27 27 0.020000
0 1 27 28 0.020000
0 1 27 29 0.020000
0 1 27 32 0.020000
0 1 27 33 0.020000
0 1 27 34 0.020000
0 1 27 35 0.020000
0 1 28 28 0.020000
0 1 28 29 0.020000
0 1 28 30 0.020000
0 1 28 32 0.020000
0 1 28 33 0.020000
0 1 28 34 0.020000
0 1 28 35 0.020000
0 1 28 36 0.020000
0 1 29 29 0.020000
0 1 29 30 0.020000
0 1 29 31 0.020000
0 1 29 33 0.020000
0 1 29 34 0.020000
0 1 29 35 0.020000
0 1 29 36 0.020000
0 1 29 37 0.020000
0 1 30 30 0.020000
0 1 30 31 0.020000
0 1 30 34 0.020000
0 1 30 35 0.020000
0 1 30 36 0.020000
0 1 30 37 0.020000
0 1 31 31 0.020000
0 1 31 35 0.020000
0 1 31 36 0.020000
0 1 31 37 0.020000
0 1 32 32 0.020000
0 1 32 33 0.020000
0 1 32 34 0.020000
0 1 33 33 0.020000
0 1 33 34 0.020000
0 1 33 35 0.020000
0 1 34 34 0.020000
0 1 34 35 0.020000
0 1 34 36 0.020000
0 1 35 35 0.020000
0 1 35 36 0.020000
0 1 35 37 0.020000
0 1 36 36 0.020000
0 1 36 37 0.020000
0 1 37 37 0.020000
